Traveling Salesman Problem/TSP_generados/Aleatorio1620390938_9.tsp
NAME: Aleatorio1620390938_9.tsp
COMMENT: Randomly generated scenario
TYPE: TSP
DIMENSION: 9
EDGE_WEIGHT_TYPE: ATT
NODE_COORD_SECTION
1 20.89 22.36
2 14.63 26.23
3 42.21 23.79
4 28.16 43.67
5 22.17 9.6
6 46.21 33.4
7 32.05 9.33
8 41.73 22.07
9 23.14 8.96
