Traveling Salesman Problem/TSP_generados/Aleatorio1620390938_9.opt.tour
NAME: Aleatorio1620390938_9.opt.tour
COMMENT: Optimal solution for Aleatorio1620390938_9 (101.29885491457209)
TYPE: TOUR
DIMENSION: 9
TOUR_SECTION
1 2 4 6 3 8 7 9 5
-1
EOF
